results/res_prop_muc/res_Cimatti_mathsat_cores/QF_UF/SEQ005_size7.smt.smt2.out

real	0m0.613s
user	0m0.497s
sys	0m0.022s
