results/res_prop_muc/res_Cimatti_mathsat_cores/QF_UF/SEQ005_size7.smt.smt2.res
unsat
( _c0
  _c1
  _c1006
  _c1022
  _c1041
  _c1048
  _c1071
  _c1091
  _c1120
  _c1127
  _c1134
  _c1141
  _c1148
  _c1155
  _c1162
  _c1171
  _c1172
  _c1173
  _c1174
  _c1175
  _c1176
  _c1177
  _c1178
  _c1179
  _c1180
  _c1181
  _c1182
  _c1183
  _c1184
  _c119
  _c1192
  _c1193
  _c1194
  _c1195
  _c1196
  _c1197
  _c1198
  _c120
  _c1201
  _c1209
  _c1213
  _c1214
  _c1217
  _c1219
  _c1220
  _c1222
  _c1224
  _c1229
  _c1230
  _c1236
  _c1237
  _c1238
  _c1240
  _c1243
  _c1244
  _c1245
  _c1346
  _c1347
  _c1348
  _c1349
  _c1350
  _c1351
  _c1352
  _c1357
  _c1358
  _c1359
  _c1360
  _c1361
  _c1362
  _c1363
  _c1364
  _c1365
  _c1366
  _c1367
  _c1368
  _c1369
  _c1370
  _c1371
  _c1372
  _c1373
  _c1374
  _c1375
  _c1376
  _c15
  _c16
  _c162
  _c169
  _c170
  _c174
  _c175
  _c197
  _c198
  _c2
  _c202
  _c226
  _c227
  _c233
  _c234
  _c24
  _c241
  _c248
  _c275
  _c276
  _c290
  _c297
  _c3
  _c31
  _c32
  _c325
  _c332
  _c339
  _c343
  _c365
  _c366
  _c37
  _c370
  _c374
  _c381
  _c4
  _c40
  _c401
  _c405
  _c407
  _c408
  _c411
  _c414
  _c415
  _c416
  _c417
  _c421
  _c422
  _c423
  _c428
  _c429
  _c435
  _c442
  _c443
  _c444
  _c447
  _c449
  _c451
  _c453
  _c456
  _c457
  _c458
  _c459
  _c463
  _c465
  _c471
  _c477
  _c48
  _c484
  _c5
  _c541
  _c56
  _c598
  _c6
  _c63
  _c655
  _c7
  _c712
  _c769
  _c8
  _c826
  _c843
  _c851
  _c875
  _c892
  _c924
  _c927
  _c934
  _c949
  _c957
  _c965
  _c973
  _c977
  _c991 )
